%chk=acro-3H2O                                                                  
%nproc=6                                                                        
# cc-pVDZ b3lyp                                                                 

 acroleina PBE0|cc-pVTZ                                                         
 CELL:    1. Central system with  3 distributed molecules.                      

 0  1
 C    -0.63060    -1.34878     0.00000
 C    -0.62737    -0.01953     0.00000
 C     0.63739     0.72428     0.00000
 O     0.72150     1.92553     0.00000
 H    -1.54706    -1.92553     0.00000
 H     0.30292    -1.90341     0.00000
 H    -1.54006     0.56647     0.00000
 H     1.54706     0.08554     0.00000
 H     0.23498     3.96582     3.10993
 O    -0.71569     3.95047     3.09186
 H    -1.01919     4.85167     3.08318
 H     2.92480     4.28728    -3.22373
 O     2.19079     4.80406    -3.53758
 H     1.47440     4.20644    -3.72191
 H    -2.86742    -2.58607     2.81101
 O    -3.22958    -1.70989     2.73697
 H    -2.55266    -1.14677     2.37776

--Link1--
%chk=acro-3H2O                                                                  
%nproc=6                                                                        
# cc-pVDZ b3lyp                                                                 

 acroleina PBE0|cc-pVTZ                                                         
 CELL:    2. Central system with  3 distributed molecules.                      

 0  1
 C    -0.63060    -1.34878     0.00000
 C    -0.62737    -0.01953     0.00000
 C     0.63739     0.72428     0.00000
 O     0.72150     1.92553     0.00000
 H    -1.54706    -1.92553     0.00000
 H     0.30292    -1.90341     0.00000
 H    -1.54006     0.56647     0.00000
 H     1.54706     0.08554     0.00000
 H     2.46795    -2.36506     4.09747
 O     3.33439    -2.74206     4.20465
 H     3.82256    -2.18073     4.79706
 H    -1.91001     0.55228    -1.52967
 O    -1.15367     1.07671    -1.76898
 H    -0.37857     0.54026    -1.64330
 H     2.74881     1.94144     3.47600
 O     2.52737     2.38428     2.66408
 H     2.16515     1.73555     2.07053

--Link1--
%chk=acro-3H2O                                                                  
%nproc=6                                                                        
# cc-pVDZ b3lyp                                                                 

 acroleina PBE0|cc-pVTZ                                                         
 CELL:    3. Central system with  3 distributed molecules.                      

 0  1
 C    -0.63060    -1.34878     0.00000
 C    -0.62737    -0.01953     0.00000
 C     0.63739     0.72428     0.00000
 O     0.72150     1.92553     0.00000
 H    -1.54706    -1.92553     0.00000
 H     0.30292    -1.90341     0.00000
 H    -1.54006     0.56647     0.00000
 H     1.54706     0.08554     0.00000
 H    -2.90939    -0.81683    -0.78523
 O    -3.15228     0.07944    -0.58018
 H    -3.75250     0.05477     0.15702
 H     0.33557    -1.58089    -3.53082
 O     0.25045    -1.56175    -2.58386
 H    -0.46322    -2.14351    -2.34602
 H     2.90094     3.29037     1.14418
 O     2.47619     4.13778     1.22051
 H     3.11421     4.80298     0.98644

--Link1--
%chk=acro-3H2O                                                                  
%nproc=6                                                                        
# cc-pVDZ b3lyp                                                                 

 acroleina PBE0|cc-pVTZ                                                         
 CELL:    4. Central system with  3 distributed molecules.                      

 0  1
 C    -0.63060    -1.34878     0.00000
 C    -0.62737    -0.01953     0.00000
 C     0.63739     0.72428     0.00000
 O     0.72150     1.92553     0.00000
 H    -1.54706    -1.92553     0.00000
 H     0.30292    -1.90341     0.00000
 H    -1.54006     0.56647     0.00000
 H     1.54706     0.08554     0.00000
 H    -3.76074     2.93955    -2.50168
 O    -4.02732     2.07175    -2.78488
 H    -4.53791     1.68288    -2.08314
 H     2.93786    -2.73298    -1.55479
 O     2.16767    -2.30247    -1.20007
 H     1.60249    -2.07385    -1.92990
 H     1.65330     0.01743     2.64880
 O     2.01905     0.80072     3.04507
 H     2.95720     0.67046     3.13023

--Link1--
%chk=acro-3H2O                                                                  
%nproc=6                                                                        
# cc-pVDZ b3lyp                                                                 

 acroleina PBE0|cc-pVTZ                                                         
 CELL:    5. Central system with  3 distributed molecules.                      

 0  1
 C    -0.63060    -1.34878     0.00000
 C    -0.62737    -0.01953     0.00000
 C     0.63739     0.72428     0.00000
 O     0.72150     1.92553     0.00000
 H    -1.54706    -1.92553     0.00000
 H     0.30292    -1.90341     0.00000
 H    -1.54006     0.56647     0.00000
 H     1.54706     0.08554     0.00000
 H     2.08778    -0.30988    -2.90325
 O     2.82070    -0.64613    -2.39916
 H     2.93178    -0.08380    -1.64035
 H    -3.73545    -0.97708    -0.38218
 O    -4.62186    -1.04536    -0.71978
 H    -4.88659    -1.95640    -0.65453
 H     3.66203     4.91159    -2.00513
 O     3.70215     3.99659    -2.26107
 H     3.42722     3.47539    -1.51467

--Link1--
%chk=acro-3H2O                                                                  
%nproc=6                                                                        
# cc-pVDZ b3lyp                                                                 

 acroleina PBE0|cc-pVTZ                                                         
 CELL:    6. Central system with  3 distributed molecules.                      

 0  1
 C    -0.63060    -1.34878     0.00000
 C    -0.62737    -0.01953     0.00000
 C     0.63739     0.72428     0.00000
 O     0.72150     1.92553     0.00000
 H    -1.54706    -1.92553     0.00000
 H     0.30292    -1.90341     0.00000
 H    -1.54006     0.56647     0.00000
 H     1.54706     0.08554     0.00000
 H     3.85683     1.56536    -2.44430
 O     4.04598     2.49641    -2.48557
 H     4.96429     2.61465    -2.26861
 H    -0.27856    -3.28644    -1.92716
 O    -0.04125    -4.14262    -2.26626
 H     0.74693    -4.42402    -1.81467
 H     0.31034     4.63196    -1.73678
 O    -0.21854     3.93560    -2.11055
 H    -0.05087     3.14477    -1.60973

--Link1--
%chk=acro-3H2O                                                                  
%nproc=6                                                                        
# cc-pVDZ b3lyp                                                                 

 acroleina PBE0|cc-pVTZ                                                         
 CELL:    7. Central system with  3 distributed molecules.                      

 0  1
 C    -0.63060    -1.34878     0.00000
 C    -0.62737    -0.01953     0.00000
 C     0.63739     0.72428     0.00000
 O     0.72150     1.92553     0.00000
 H    -1.54706    -1.92553     0.00000
 H     0.30292    -1.90341     0.00000
 H    -1.54006     0.56647     0.00000
 H     1.54706     0.08554     0.00000
 H     0.27785    -3.43597     3.04672
 O     0.28098    -3.90763     2.22096
 H     1.12308    -3.75732     1.80547
 H     2.27583    -3.79786    -2.41991
 O     1.56352    -4.33390    -2.75102
 H     0.82444    -3.75993    -2.92032
 H    -3.27380    -1.51704    -3.42382
 O    -2.39725    -1.77329    -3.68905
 H    -2.38190    -2.72161    -3.75835

--Link1--
%chk=acro-3H2O                                                                  
%nproc=6                                                                        
# cc-pVDZ b3lyp                                                                 

 acroleina PBE0|cc-pVTZ                                                         
 CELL:    8. Central system with  3 distributed molecules.                      

 0  1
 C    -0.63060    -1.34878     0.00000
 C    -0.62737    -0.01953     0.00000
 C     0.63739     0.72428     0.00000
 O     0.72150     1.92553     0.00000
 H    -1.54706    -1.92553     0.00000
 H     0.30292    -1.90341     0.00000
 H    -1.54006     0.56647     0.00000
 H     1.54706     0.08554     0.00000
 H    -2.58966    -4.15776     1.14783
 O    -2.81903    -3.23613     1.09940
 H    -3.76798    -3.17431     1.09517
 H     1.21199     0.79008     2.29582
 O     0.74875     1.62058     2.29133
 H    -0.08236     1.49033     2.73477
 H     3.62155    -0.22037    -1.81426
 O     4.35623    -0.65206    -1.39209
 H     4.04939    -1.49036    -1.06431

--Link1--
%chk=acro-3H2O                                                                  
%nproc=6                                                                        
# cc-pVDZ b3lyp                                                                 

 acroleina PBE0|cc-pVTZ                                                         
 CELL:    9. Central system with  3 distributed molecules.                      

 0  1
 C    -0.63060    -1.34878     0.00000
 C    -0.62737    -0.01953     0.00000
 C     0.63739     0.72428     0.00000
 O     0.72150     1.92553     0.00000
 H    -1.54706    -1.92553     0.00000
 H     0.30292    -1.90341     0.00000
 H    -1.54006     0.56647     0.00000
 H     1.54706     0.08554     0.00000
 H    -2.15837     2.03936     2.13955
 O    -2.62812     1.24017     1.92748
 H    -3.46307     1.26645     2.38191
 H    -1.11895     4.39902     0.07736
 O    -1.06744     3.78803     0.80426
 H    -0.55783     3.03856     0.51628
 H     0.02815    -4.60748     2.37688
 O     0.69560    -3.95944     2.17966
 H     0.66213    -3.29428     2.85847

--Link1--
%chk=acro-3H2O                                                                  
%nproc=6                                                                        
# cc-pVDZ b3lyp                                                                 

 acroleina PBE0|cc-pVTZ                                                         
 CELL:   10. Central system with  3 distributed molecules.                      

 0  1
 C    -0.63060    -1.34878     0.00000
 C    -0.62737    -0.01953     0.00000
 C     0.63739     0.72428     0.00000
 O     0.72150     1.92553     0.00000
 H    -1.54706    -1.92553     0.00000
 H     0.30292    -1.90341     0.00000
 H    -1.54006     0.56647     0.00000
 H     1.54706     0.08554     0.00000
 H     4.71074     3.72045     1.07679
 O     4.30013     4.54701     1.30599
 H     3.36115     4.40193     1.34615
 H     0.38013    -1.21733    -3.03720
 O    -0.19228    -0.57746    -2.62823
 H     0.31289    -0.11987    -1.96509
 H    -3.31016    -3.04070     2.24692
 O    -3.60967    -2.14242     2.33482
 H    -2.86971    -1.61766     2.62018

--Link1--
%chk=acro-3H2O                                                                  
%nproc=6                                                                        
# cc-pVDZ b3lyp                                                                 

 acroleina PBE0|cc-pVTZ                                                         
 CELL:   11. Central system with  3 distributed molecules.                      

 0  1
 C    -0.63060    -1.34878     0.00000
 C    -0.62737    -0.01953     0.00000
 C     0.63739     0.72428     0.00000
 O     0.72150     1.92553     0.00000
 H    -1.54706    -1.92553     0.00000
 H     0.30292    -1.90341     0.00000
 H    -1.54006     0.56647     0.00000
 H     1.54706     0.08554     0.00000
 H    -2.90123    -3.58978    -3.52270
 O    -3.68891    -4.08674    -3.71484
 H    -3.59583    -4.44932    -4.58903
 H    -1.72999     3.41633    -1.64204
 O    -1.55174     4.35040    -1.63326
 H    -0.61757     4.46763    -1.76720
 H    -3.20492    -3.36708     4.83880
 O    -3.37038    -2.43064     4.84522
 H    -4.31282    -2.30370     4.85065

--Link1--
%chk=acro-3H2O                                                                  
%nproc=6                                                                        
# cc-pVDZ b3lyp                                                                 

 acroleina PBE0|cc-pVTZ                                                         
 CELL:   12. Central system with  3 distributed molecules.                      

 0  1
 C    -0.63060    -1.34878     0.00000
 C    -0.62737    -0.01953     0.00000
 C     0.63739     0.72428     0.00000
 O     0.72150     1.92553     0.00000
 H    -1.54706    -1.92553     0.00000
 H     0.30292    -1.90341     0.00000
 H    -1.54006     0.56647     0.00000
 H     1.54706     0.08554     0.00000
 H     1.79805     0.92698     3.44368
 O     2.34607     0.15530     3.35138
 H     1.81211    -0.53484     2.97331
 H    -2.92523     2.54265     3.68550
 O    -3.26925     1.65618     3.67300
 H    -3.71902     1.53237     2.84432
 H     0.43766    -4.49101    -4.02903
 O     1.29335    -4.08264    -3.95583
 H     1.90176    -4.74127    -3.63897

--Link1--
%chk=acro-3H2O                                                                  
%nproc=6                                                                        
# cc-pVDZ b3lyp                                                                 

 acroleina PBE0|cc-pVTZ                                                         
 CELL:   13. Central system with  3 distributed molecules.                      

 0  1
 C    -0.63060    -1.34878     0.00000
 C    -0.62737    -0.01953     0.00000
 C     0.63739     0.72428     0.00000
 O     0.72150     1.92553     0.00000
 H    -1.54706    -1.92553     0.00000
 H     0.30292    -1.90341     0.00000
 H    -1.54006     0.56647     0.00000
 H     1.54706     0.08554     0.00000
 H     2.16496    -2.14174     3.39611
 O     1.32910    -1.69145     3.34219
 H     1.50683    -0.76838     3.19830
 H     1.73873     2.93253     3.09233
 O     0.82776     2.77982     3.31851
 H     0.66389     1.84611     3.24322
 H    -3.68207    -3.09275    -4.37837
 O    -4.12862    -3.92324    -4.50178
 H    -4.45015    -4.20740    -3.65313

--Link1--
%chk=acro-3H2O                                                                  
%nproc=6                                                                        
# cc-pVDZ b3lyp                                                                 

 acroleina PBE0|cc-pVTZ                                                         
 CELL:   14. Central system with  3 distributed molecules.                      

 0  1
 C    -0.63060    -1.34878     0.00000
 C    -0.62737    -0.01953     0.00000
 C     0.63739     0.72428     0.00000
 O     0.72150     1.92553     0.00000
 H    -1.54706    -1.92553     0.00000
 H     0.30292    -1.90341     0.00000
 H    -1.54006     0.56647     0.00000
 H     1.54706     0.08554     0.00000
 H    -4.52945     1.75514    -1.95920
 O    -3.84144     2.03556    -1.36561
 H    -4.19226     2.73648    -0.82711
 H     3.31980     2.82439     0.13366
 O     4.20884     2.52483     0.28929
 H     4.77517     3.28877     0.29053
 H     1.24527     2.85784     2.68342
 O     1.12780     3.73134     2.32628
 H     0.84951     4.29901     3.03667

--Link1--
%chk=acro-3H2O                                                                  
%nproc=6                                                                        
# cc-pVDZ b3lyp                                                                 

 acroleina PBE0|cc-pVTZ                                                         
 CELL:   15. Central system with  3 distributed molecules.                      

 0  1
 C    -0.63060    -1.34878     0.00000
 C    -0.62737    -0.01953     0.00000
 C     0.63739     0.72428     0.00000
 O     0.72150     1.92553     0.00000
 H    -1.54706    -1.92553     0.00000
 H     0.30292    -1.90341     0.00000
 H    -1.54006     0.56647     0.00000
 H     1.54706     0.08554     0.00000
 H    -1.97342     1.95977    -4.51247
 O    -2.90547     1.83585    -4.37007
 H    -3.27540     2.67797    -4.12854
 H     1.57569    -0.92444     3.18379
 O     1.54651    -0.33610     2.43723
 H     1.68781     0.54728     2.75974
 H    -2.91109    -0.43253    -0.00821
 O    -2.90233    -0.73489     0.89337
 H    -2.98091     0.02849     1.45499

--Link1--
%chk=acro-3H2O                                                                  
%nproc=6                                                                        
# cc-pVDZ b3lyp                                                                 

 acroleina PBE0|cc-pVTZ                                                         
 CELL:   16. Central system with  3 distributed molecules.                      

 0  1
 C    -0.63060    -1.34878     0.00000
 C    -0.62737    -0.01953     0.00000
 C     0.63739     0.72428     0.00000
 O     0.72150     1.92553     0.00000
 H    -1.54706    -1.92553     0.00000
 H     0.30292    -1.90341     0.00000
 H    -1.54006     0.56647     0.00000
 H     1.54706     0.08554     0.00000
 H    -0.39738    -0.58710     4.11142
 O    -0.35126    -1.01390     3.26286
 H    -0.00154    -1.88791     3.39757
 H     3.39230    -0.64096    -4.04695
 O     2.48538    -0.37188    -3.94980
 H     2.45787     0.57704    -4.00579
 H    -3.80040    -1.98377    -1.63451
 O    -3.35907    -1.90064    -0.79626
 H    -3.23862    -0.97323    -0.62379

--Link1--
%chk=acro-3H2O                                                                  
%nproc=6                                                                        
# cc-pVDZ b3lyp                                                                 

 acroleina PBE0|cc-pVTZ                                                         
 CELL:   17. Central system with  3 distributed molecules.                      

 0  1
 C    -0.63060    -1.34878     0.00000
 C    -0.62737    -0.01953     0.00000
 C     0.63739     0.72428     0.00000
 O     0.72150     1.92553     0.00000
 H    -1.54706    -1.92553     0.00000
 H     0.30292    -1.90341     0.00000
 H    -1.54006     0.56647     0.00000
 H     1.54706     0.08554     0.00000
 H     1.82830    -0.52258    -3.69976
 O     0.88784    -0.43295    -3.80860
 H     0.68234     0.49543    -3.79364
 H    -0.84359     2.47663     2.94819
 O    -1.11895     3.38685     2.94265
 H    -2.06615     3.40276     3.02578
 H     2.06894    -1.44404     2.26604
 O     1.57961    -0.95945     1.61023
 H     0.72276    -1.36433     1.53131

--Link1--
%chk=acro-3H2O                                                                  
%nproc=6                                                                        
# cc-pVDZ b3lyp                                                                 

 acroleina PBE0|cc-pVTZ                                                         
 CELL:   18. Central system with  3 distributed molecules.                      

 0  1
 C    -0.63060    -1.34878     0.00000
 C    -0.62737    -0.01953     0.00000
 C     0.63739     0.72428     0.00000
 O     0.72150     1.92553     0.00000
 H    -1.54706    -1.92553     0.00000
 H     0.30292    -1.90341     0.00000
 H    -1.54006     0.56647     0.00000
 H     1.54706     0.08554     0.00000
 H    -1.87919     1.18997     3.46925
 O    -1.50897     1.71378     2.76717
 H    -2.14299     2.38617     2.54303
 H     3.13416     1.35250     2.13583
 O     2.69662     1.06833     2.93091
 H     2.68278     1.80492     3.53223
 H     2.22511    -3.48119     0.90368
 O     1.50396    -4.09266     0.80175
 H     1.52781    -4.69313     1.53878

--Link1--
%chk=acro-3H2O                                                                  
%nproc=6                                                                        
# cc-pVDZ b3lyp                                                                 

 acroleina PBE0|cc-pVTZ                                                         
 CELL:   19. Central system with  3 distributed molecules.                      

 0  1
 C    -0.63060    -1.34878     0.00000
 C    -0.62737    -0.01953     0.00000
 C     0.63739     0.72428     0.00000
 O     0.72150     1.92553     0.00000
 H    -1.54706    -1.92553     0.00000
 H     0.30292    -1.90341     0.00000
 H    -1.54006     0.56647     0.00000
 H     1.54706     0.08554     0.00000
 H     2.12043     3.34495     3.79076
 O     1.56310     3.47725     4.54985
 H     0.72743     3.06007     4.37107
 H     1.94908    -1.66346    -2.70764
 O     1.61359    -0.79504    -2.90162
 H     0.67441    -0.87019    -3.03059
 H     2.31563    -0.16681     1.41077
 O     1.68384    -0.86140     1.56151
 H     1.78681    -1.15577     2.45990

--Link1--
%chk=acro-3H2O                                                                  
%nproc=6                                                                        
# cc-pVDZ b3lyp                                                                 

 acroleina PBE0|cc-pVTZ                                                         
 CELL:   20. Central system with  3 distributed molecules.                      

 0  1
 C    -0.63060    -1.34878     0.00000
 C    -0.62737    -0.01953     0.00000
 C     0.63739     0.72428     0.00000
 O     0.72150     1.92553     0.00000
 H    -1.54706    -1.92553     0.00000
 H     0.30292    -1.90341     0.00000
 H    -1.54006     0.56647     0.00000
 H     1.54706     0.08554     0.00000
 H     2.86938     4.58566    -3.72315
 O     3.67731     4.36647    -3.27199
 H     3.99958     3.54953    -3.63682
 H     1.29456    -1.70515    -1.96613
 O     1.52393    -1.52563    -2.87140
 H     1.34555    -2.31165    -3.37608
 H    -1.85182    -2.32205    -2.17679
 O    -1.24774    -2.77162    -1.59599
 H    -1.62496    -3.61903    -1.38638

--Link1--
%chk=acro-3H2O                                                                  
%nproc=6                                                                        
# cc-pVDZ b3lyp                                                                 

 acroleina PBE0|cc-pVTZ                                                         
 CELL:   21. Central system with  3 distributed molecules.                      

 0  1
 C    -0.63060    -1.34878     0.00000
 C    -0.62737    -0.01953     0.00000
 C     0.63739     0.72428     0.00000
 O     0.72150     1.92553     0.00000
 H    -1.54706    -1.92553     0.00000
 H     0.30292    -1.90341     0.00000
 H    -1.54006     0.56647     0.00000
 H     1.54706     0.08554     0.00000
 H     0.29008    -1.79115     2.31057
 O     0.06747    -0.91682     2.01001
 H    -0.87251    -0.80894     2.10561
 H    -1.76668     1.87395    -2.36379
 O    -1.85192     2.31267    -1.52439
 H    -1.27451     3.06823    -1.53323
 H     2.48392     0.96120     3.61520
 O     1.67142     0.46945     3.56664
 H     0.95382     1.08824     3.64726

--Link1--
%chk=acro-3H2O                                                                  
%nproc=6                                                                        
# cc-pVDZ b3lyp                                                                 

 acroleina PBE0|cc-pVTZ                                                         
 CELL:   22. Central system with  3 distributed molecules.                      

 0  1
 C    -0.63060    -1.34878     0.00000
 C    -0.62737    -0.01953     0.00000
 C     0.63739     0.72428     0.00000
 O     0.72150     1.92553     0.00000
 H    -1.54706    -1.92553     0.00000
 H     0.30292    -1.90341     0.00000
 H    -1.54006     0.56647     0.00000
 H     1.54706     0.08554     0.00000
 H     3.19325    -3.44022     2.47065
 O     3.37371    -2.66355     2.98888
 H     2.73602    -2.63175     3.69364
 H    -3.08031    -0.45675     3.20854
 O    -2.42245     0.15525     3.52002
 H    -2.41781     0.90019     2.92892
 H    -1.41156    -0.22830    -2.09212
 O    -2.15484     0.28490    -1.79463
 H    -2.79028     0.30998    -2.50169

--Link1--
%chk=acro-3H2O                                                                  
%nproc=6                                                                        
# cc-pVDZ b3lyp                                                                 

 acroleina PBE0|cc-pVTZ                                                         
 CELL:   23. Central system with  3 distributed molecules.                      

 0  1
 C    -0.63060    -1.34878     0.00000
 C    -0.62737    -0.01953     0.00000
 C     0.63739     0.72428     0.00000
 O     0.72150     1.92553     0.00000
 H    -1.54706    -1.92553     0.00000
 H     0.30292    -1.90341     0.00000
 H    -1.54006     0.56647     0.00000
 H     1.54706     0.08554     0.00000
 H     1.42565    -2.06493     2.03337
 O     1.03600    -2.03029     2.90016
 H     1.70368    -1.72624     3.50523
 H    -3.59298     4.15991    -3.25019
 O    -3.10452     4.13055    -2.43478
 H    -2.47256     3.42309    -2.50176
 H    -0.25082    -4.09461     2.30253
 O     0.25326    -3.72050     1.58819
 H     1.13143    -3.55153     1.91163

--Link1--
%chk=acro-3H2O                                                                  
%nproc=6                                                                        
# cc-pVDZ b3lyp                                                                 

 acroleina PBE0|cc-pVTZ                                                         
 CELL:   24. Central system with  3 distributed molecules.                      

 0  1
 C    -0.63060    -1.34878     0.00000
 C    -0.62737    -0.01953     0.00000
 C     0.63739     0.72428     0.00000
 O     0.72150     1.92553     0.00000
 H    -1.54706    -1.92553     0.00000
 H     0.30292    -1.90341     0.00000
 H    -1.54006     0.56647     0.00000
 H     1.54706     0.08554     0.00000
 H     2.65202     1.17312    -4.64362
 O     2.77542     2.07839    -4.37979
 H     3.30247     2.07945    -3.58823
 H     4.17109     2.64930     3.23176
 O     4.24180     1.83469     3.71731
 H     4.52084     1.15900     3.10910
 H     4.03368     3.60618     1.45063
 O     3.79655     4.41087     1.00275
 H     4.59612     4.80126     0.66716

--Link1--
%chk=acro-3H2O                                                                  
%nproc=6                                                                        
# cc-pVDZ b3lyp                                                                 

 acroleina PBE0|cc-pVTZ                                                         
 CELL:   25. Central system with  3 distributed molecules.                      

 0  1
 C    -0.63060    -1.34878     0.00000
 C    -0.62737    -0.01953     0.00000
 C     0.63739     0.72428     0.00000
 O     0.72150     1.92553     0.00000
 H    -1.54706    -1.92553     0.00000
 H     0.30292    -1.90341     0.00000
 H    -1.54006     0.56647     0.00000
 H     1.54706     0.08554     0.00000
 H    -3.23609     2.12058    -1.32341
 O    -2.50324     2.61804    -0.97727
 H    -2.70346     2.83679    -0.07372
 H     0.90146     2.80235     3.04874
 O     0.87039     3.04161     2.12888
 H     1.61672     3.60348     1.95103
 H    -1.98248     4.01255    -3.32493
 O    -1.12739     4.25770    -3.66117
 H    -0.58416     4.50116    -2.91957

--Link1--
%chk=acro-3H2O                                                                  
%nproc=6                                                                        
# cc-pVDZ b3lyp                                                                 

 acroleina PBE0|cc-pVTZ                                                         
 CELL:   26. Central system with  3 distributed molecules.                      

 0  1
 C    -0.63060    -1.34878     0.00000
 C    -0.62737    -0.01953     0.00000
 C     0.63739     0.72428     0.00000
 O     0.72150     1.92553     0.00000
 H    -1.54706    -1.92553     0.00000
 H     0.30292    -1.90341     0.00000
 H    -1.54006     0.56647     0.00000
 H     1.54706     0.08554     0.00000
 H     1.58160    -2.69561    -2.35228
 O     1.72467    -3.59851    -2.61428
 H     2.64426    -3.79735    -2.47584
 H     4.66322     0.67863    -1.99083
 O     3.72714     0.51782    -2.03806
 H     3.59122    -0.42075    -1.96765
 H     2.37560     2.04940     2.78116
 O     1.54254     1.61208     2.91939
 H     1.71653     0.79686     3.37710

--Link1--
%chk=acro-3H2O                                                                  
%nproc=6                                                                        
# cc-pVDZ b3lyp                                                                 

 acroleina PBE0|cc-pVTZ                                                         
 CELL:   27. Central system with  3 distributed molecules.                      

 0  1
 C    -0.63060    -1.34878     0.00000
 C    -0.62737    -0.01953     0.00000
 C     0.63739     0.72428     0.00000
 O     0.72150     1.92553     0.00000
 H    -1.54706    -1.92553     0.00000
 H     0.30292    -1.90341     0.00000
 H    -1.54006     0.56647     0.00000
 H     1.54706     0.08554     0.00000
 H    -0.72078     2.57579     3.95738
 O    -0.83943     3.13399     4.71809
 H    -0.36933     3.94492     4.55766
 H     4.54446    -4.21809     3.67038
 O     4.18627    -3.66511     4.35614
 H     3.35691    -4.04263     4.62814
 H     3.75862     3.08912    -3.65855
 O     3.55397     2.34263    -3.10608
 H     4.36737     1.88329    -2.92796

--Link1--
%chk=acro-3H2O                                                                  
%nproc=6                                                                        
# cc-pVDZ b3lyp                                                                 

 acroleina PBE0|cc-pVTZ                                                         
 CELL:   28. Central system with  3 distributed molecules.                      

 0  1
 C    -0.63060    -1.34878     0.00000
 C    -0.62737    -0.01953     0.00000
 C     0.63739     0.72428     0.00000
 O     0.72150     1.92553     0.00000
 H    -1.54706    -1.92553     0.00000
 H     0.30292    -1.90341     0.00000