%nproc=6                                                                        
#opt cc-pVDZ PBE1PBE                                                            

 acroleina PBE0|cc-pVTZ                                                         
 CELL:    1. Central system with 10 distributed molecules.                      

 0  1
 C    -0.63060    -1.34878     0.00000
 C    -0.62737    -0.01953     0.00000
 C     0.63739     0.72428     0.00000
 O     0.72150     1.92553     0.00000
 H    -1.54706    -1.92553     0.00000
 H     0.30292    -1.90341     0.00000
 H    -1.54006     0.56647     0.00000
 H     1.54706     0.08554     0.00000
 H    -2.97054     2.78461    -2.01574
 O    -3.85376     2.89824    -1.68205
 H    -3.95997     2.31285    -0.94018
 H    -9.24469    -4.73424    -3.40040
 O    -9.02999    -4.94332    -4.30292
 H    -9.14070    -5.88096    -4.41657
 H    -5.49928     8.77908     5.11283
 O    -6.08364     8.34987     5.72818
 H    -5.62475     7.59771     6.08598
 H    -0.86207     5.26030     8.22115
 O    -0.21063     5.94406     8.33273
 H     0.58087     5.53722     8.66793
 H    -3.77280    -2.46243     9.53262
 O    -3.95818    -2.42003     8.60085
 H    -4.58772    -3.10390     8.40002
 H    -3.69247     4.82729    -4.78530
 O    -3.94821     3.91219    -4.74614
 H    -3.15432     3.39280    -4.68032
 H     4.48394    -9.21433     7.27029
 O     4.31879    -8.27813     7.29476
 H     3.37645    -8.15057     7.28584
 H    -6.56806    -5.40715    -2.01848
 O    -6.02385    -4.64421    -1.85690
 H    -6.60136    -3.90235    -1.71380
 H     6.52405     6.65434     7.44873
 O     6.93216     6.09312     8.09898
 H     6.33750     5.37147     8.27201
 H     3.70617    -7.66522    -3.92502
 O     3.85886    -6.73597    -4.05742
 H     3.02005    -6.32912    -4.24507

--Link1--
%nproc=6                                                                        
#opt cc-pVDZ PBE1PBE                                                            

 acroleina PBE0|cc-pVTZ                                                         
 CELL:    2. Central system with 10 distributed molecules.                      

 0  1
 C    -0.63060    -1.34878     0.00000
 C    -0.62737    -0.01953     0.00000
 C     0.63739     0.72428     0.00000
 O     0.72150     1.92553     0.00000
 H    -1.54706    -1.92553     0.00000
 H     0.30292    -1.90341     0.00000
 H    -1.54006     0.56647     0.00000
 H     1.54706     0.08554     0.00000
 H    -1.95305     3.57423     4.36016
 O    -1.31913     2.93414     4.05557
 H    -0.75632     3.36412     3.42097
 H     8.27131    -0.70454     0.12520
 O     7.89332    -1.57583     0.17336
 H     8.60962    -2.19914     0.22567
 H    -3.58743     3.87948     3.06689
 O    -4.32368     4.20616     2.56136
 H    -4.03404     4.98524     2.09931
 H     6.96143    -2.97309    -1.52293
 O     6.34178    -2.35401    -1.89320
 H     6.83979    -1.68381    -2.34836
 H     9.69940    -9.01938    -4.99839
 O     8.77906    -8.82676    -4.85618
 H     8.36462    -8.75072    -5.70871
 H     3.88634     8.63708    -8.70297
 O     3.60000     8.63820    -7.79613
 H     3.52708     9.54441    -7.51720
 H    -4.91658     9.27065    -3.84286
 O    -4.58421     8.72404    -4.54649
 H    -4.87473     9.10314    -5.36882
 H    -5.40095    -7.13799     0.80936
 O    -5.82196    -6.28540     0.79592
 H    -6.76103    -6.42594     0.84827
 H     5.34369    -7.89551    -6.06066
 O     4.54403    -7.39941    -5.92365
 H     3.92045    -7.66650    -6.59010
 H    -7.33207     3.86371     6.48533
 O    -7.35692     4.19035     5.59256
 H    -6.64379     4.81140     5.49209

--Link1--
%nproc=6                                                                        
#opt cc-pVDZ PBE1PBE                                                            

 acroleina PBE0|cc-pVTZ                                                         
 CELL:    3. Central system with 10 distributed molecules.                      

 0  1
 C    -0.63060    -1.34878     0.00000
 C    -0.62737    -0.01953     0.00000
 C     0.63739     0.72428     0.00000
 O     0.72150     1.92553     0.00000
 H    -1.54706    -1.92553     0.00000
 H     0.30292    -1.90341     0.00000
 H    -1.54006     0.56647     0.00000
 H     1.54706     0.08554     0.00000
 H     7.45937     8.37992    -6.79806
 O     8.40506     8.47948    -6.78797
 H     8.78744     7.60882    -6.79740
 H     2.99690    -2.94580    -1.74464
 O     3.49374    -2.57296    -1.02458
 H     3.00522    -1.82816    -0.69146
 H     5.03507    -6.36110     9.05700
 O     4.58109    -6.13176     8.25348
 H     3.91478    -6.79252     8.09930
 H     7.81061    -4.18499     7.22378
 O     8.23101    -3.41006     7.58029
 H     9.13217    -3.63710     7.78205
 H    -1.06259    -8.26050     2.36860
 O    -0.55064    -8.16665     1.57270
 H    -0.23168    -7.27144     1.53811
 H    -2.50663    -7.71980    -5.53797
 O    -2.26694    -8.03025    -4.67165
 H    -2.93645    -8.64359    -4.38896
 H     5.46672     5.91856    -7.14207
 O     5.82846     5.58510    -6.32825
 H     6.12852     6.32989    -5.81874
 H    -7.15642     7.55743    -6.04990
 O    -6.31204     7.12178    -6.08955
 H    -6.47007     6.18406    -6.08348
 H    -6.64244     8.40009    -3.20389
 O    -5.73472     8.23972    -3.43768
 H    -5.47478     8.90793    -4.06240
 H    -7.39115    -9.32067    -0.85680
 O    -8.31704    -9.47501    -0.70436
 H    -8.79958    -8.76496    -1.11342

--Link1--
%nproc=6                                                                        
#opt cc-pVDZ PBE1PBE                                                            

 acroleina PBE0|cc-pVTZ                                                         
 CELL:    4. Central system with 10 distributed molecules.                      

 0  1
 C    -0.63060    -1.34878     0.00000
 C    -0.62737    -0.01953     0.00000
 C     0.63739     0.72428     0.00000
 O     0.72150     1.92553     0.00000
 H    -1.54706    -1.92553     0.00000
 H     0.30292    -1.90341     0.00000
 H    -1.54006     0.56647     0.00000
 H     1.54706     0.08554     0.00000
 H    -6.41536     7.98552     2.76355
 O    -6.17267     7.82399     1.85837
 H    -5.68483     8.58006     1.55061
 H     0.00483     5.82839     0.54938
 O    -0.35070     5.29387    -0.15221
 H     0.20313     4.52575    -0.23938
 H    -6.04971     3.93841    -8.65437
 O    -5.20988     3.59233    -8.37286
 H    -4.56916     4.29090    -8.44921
 H     5.74033    -8.14459    -5.52058
 O     6.66121    -8.18069    -5.28600
 H     6.85705    -9.07258    -5.02046
 H     1.20727    -5.46813     8.78327
 O     0.26487    -5.59335     8.80670
 H    -0.13976    -4.80936     8.45176
 H    -5.67978    -2.35959     7.92154
 O    -6.19674    -2.80642     8.58293
 H    -7.09500    -2.84148     8.27269
 H     0.20144    -6.72962    -4.12026
 O     0.55609    -7.43390    -3.58870
 H     0.36768    -8.25375    -4.03219
 H    -6.48661     1.95821    -7.39483
 O    -6.08110     2.06091    -8.24885
 H    -6.46453     1.41366    -8.83057
 H     1.82242    -6.14819    -7.09539
 O     1.45337    -5.36888    -7.49643
 H     2.17611    -4.82548    -7.79090
 H     8.48568     1.37736     4.44807
 O     8.53976     2.00364     3.73449
 H     9.45786     2.10597     3.50873

--Link1--
%nproc=6                                                                        
#opt cc-pVDZ PBE1PBE                                                            

 acroleina PBE0|cc-pVTZ                                                         
 CELL:    5. Central system with 10 distributed molecules.                      

 0  1
 C    -0.63060    -1.34878     0.00000
 C    -0.62737    -0.01953     0.00000
 C     0.63739     0.72428     0.00000
 O     0.72150     1.92553     0.00000
 H    -1.54706    -1.92553     0.00000
 H     0.30292    -1.90341     0.00000
 H    -1.54006     0.56647     0.00000
 H     1.54706     0.08554     0.00000
 H    -2.18958    -4.08632     7.62483
 O    -1.83352    -3.37464     8.14548
 H    -1.91649    -3.61695     9.06131
 H    -1.90727     7.73179    -1.95882
 O    -1.91585     7.91918    -2.89111
 H    -2.66234     7.46783    -3.26977
 H     8.69731    -2.90323     5.71441
 O     8.88484    -3.82678     5.58701
 H     8.05510    -4.27704     5.47240
 H    -1.17125     1.86937     5.93731
 O    -2.01896     1.70559     6.33593
 H    -1.93415     0.93752     6.89021
 H     1.79163     6.42901    -7.35853
 O     1.86013     6.65051    -6.43625
 H     2.22323     5.89676    -5.98419
 H     2.54880    -4.37664    -7.59248
 O     1.87776    -3.76634    -7.30684
 H     1.12771    -4.27530    -7.01923
 H    -6.98033     5.09403     9.01832
 O    -7.77617     5.53398     8.74008
 H    -7.67703     6.45992     8.93282
 H    -0.36270    -6.00826     7.66995
 O     0.33243    -6.62381     7.87547
 H     0.56269    -7.07836     7.07254
 H     6.21944    -0.20278     4.51947
 O     6.35926     0.68592     4.82770
 H     6.02900     1.27833     4.16113
 H    -2.13245    -5.27380    -4.37651
 O    -1.21735    -5.09607    -4.18847
 H    -1.18485    -4.50196    -3.44663

--Link1--
%nproc=6                                                                        
#opt cc-pVDZ PBE1PBE                                                            

 acroleina PBE0|cc-pVTZ                                                         
 CELL:    6. Central system with 10 distributed molecules.                      

 0  1
 C    -0.63060    -1.34878     0.00000
 C    -0.62737    -0.01953     0.00000
 C     0.63739     0.72428     0.00000
 O     0.72150     1.92553     0.00000
 H    -1.54706    -1.92553     0.00000
 H     0.30292    -1.90341     0.00000
 H    -1.54006     0.56647     0.00000
 H     1.54706     0.08554     0.00000
 H    -5.17516    -2.78253     1.39759
 O    -5.56474    -1.92321     1.51653
 H    -6.15735    -1.97474     2.25849
 H     7.17913    -2.33034    -6.51017
 O     6.36937    -2.81386    -6.38833
 H     6.59514    -3.72947    -6.26575
 H    -0.95946    -1.14991    -7.60158
 O    -0.12413    -1.26548    -7.16202
 H    -0.19347    -2.03473    -6.60724
 H    -6.36947    -8.63252     5.97749
 O    -6.19694    -8.72093     5.04649
 H    -5.86828    -9.60047     4.89571
 H    -6.57884     0.68080     5.07587
 O    -6.42590    -0.07903     4.52486
 H    -6.73700     0.13036     3.65096
 H     1.24173    -5.92679    -4.61892
 O     2.06112    -6.09216    -4.16548
 H     2.36999    -5.26370    -3.81536
 H     4.04093    -3.28418     7.02398
 O     4.89289    -3.37289     6.61090
 H     5.27136    -4.19506     6.90272
 H    -0.06980     9.15567     4.24395
 O    -0.78899     9.76778     4.35547
 H    -1.58468     9.33453     4.06649
 H     2.81093     3.24414    -5.28723
 O     1.97262     3.62589    -5.05093
 H     1.29015     3.06903    -5.40938
 H     5.35656     5.18831     4.43667
 O     5.13333     5.69442     5.21021
 H     5.93340     6.09157     5.53656

--Link1--
%nproc=6                                                                        
#opt cc-pVDZ PBE1PBE                                                            

 acroleina PBE0|cc-pVTZ                                                         
 CELL:    7. Central system with 10 distributed molecules.                      

 0  1
 C    -0.63060    -1.34878     0.00000
 C    -0.62737    -0.01953     0.00000
 C     0.63739     0.72428     0.00000
 O     0.72150     1.92553     0.00000
 H    -1.54706    -1.92553     0.00000
 H     0.30292    -1.90341     0.00000
 H    -1.54006     0.56647     0.00000
 H     1.54706     0.08554     0.00000
 H     5.06005    -8.90429     7.47381
 O     5.27858    -8.09972     7.93126
 H     6.05058    -7.73149     7.51561
 H     0.48498     1.27976     3.00976
 O     0.89491     0.67979     3.62322
 H     0.97980     1.13114     4.45594
 H     2.70244    -8.29102    -8.08762
 O     2.20023    -8.49719    -8.86840
 H     1.27935    -8.48466    -8.63140
 H    -1.29457     3.22043    -9.51335
 O    -0.64516     2.60568    -9.18980
 H    -1.10382     1.82031    -8.91198
 H    -5.76262     6.98013    -1.27992
 O    -5.56727     7.46999    -2.07126
 H    -5.05848     6.90515    -2.64261
 H     5.18910    -6.37248     3.67439
 O     5.78682    -5.66841     3.90101
 H     5.26593    -4.89248     4.07695
 H     1.94761     7.50561     5.08984
 O     1.71810     7.63072     4.17550
 H     0.90215     8.11829     4.14645
 H     7.52231    -6.89385    -5.54561
 O     8.04289    -6.16364    -5.22918
 H     8.69529    -5.96514    -5.89200
 H    -8.36340    -0.50559    -9.45287
 O    -9.31306    -0.46102    -9.47523
 H    -9.55954     0.45743    -9.46777
 H     4.13051     4.16500    -4.27763
 O     3.77107     3.65604    -3.55922
 H     4.07126     4.04996    -2.74739

--Link1--
%nproc=6                                                                        
#opt cc-pVDZ PBE1PBE                                                            

 acroleina PBE0|cc-pVTZ                                                         
 CELL:    8. Central system with 10 distributed molecules.                      

 0  1
 C    -0.63060    -1.34878     0.00000
 C    -0.62737    -0.01953     0.00000
 C     0.63739     0.72428     0.00000
 O     0.72150     1.92553     0.00000
 H    -1.54706    -1.92553     0.00000
 H     0.30292    -1.90341     0.00000
 H    -1.54006     0.56647     0.00000
 H     1.54706     0.08554     0.00000
 H    -9.19029    -1.88132    -1.62053
 O    -9.08203    -2.67764    -1.11211
 H    -8.56965    -2.46073    -0.34090
 H     2.55725     0.19612     6.31983
 O     2.29539     0.93043     6.86441
 H     1.36470     1.07236     6.73020
 H     8.51430    -4.78467     2.19909
 O     7.87860    -4.99817     2.87337
 H     7.72652    -5.93632     2.84055
 H     5.40101    -5.79595    -6.81998
 O     5.15044    -4.92835    -6.52195
 H     4.26884    -4.75850    -6.83544
 H     2.96397     8.26974     6.20758
 O     2.08565     8.53119     6.46165
 H     2.14357     8.94847     7.31421
 H     1.97473     6.89704    -0.33325
 O     2.65095     6.64038     0.28416
 H     3.36744     7.26028     0.20229
 H     3.31052     3.15620    -4.63436
 O     3.42260     2.26028    -4.33585
 H     4.35469     2.07179    -4.33080
 H    -6.01966    -4.92069    -1.26531
 O    -5.40723    -4.45323    -1.82276
 H    -5.21611    -5.00805    -2.57109
 H     5.09453     0.84331     6.94523
 O     4.84537     1.22990     7.77758
 H     5.32737     2.04398     7.87395
 H     0.54042     3.85467    -6.66906
 O     0.99163     4.60554    -7.03914
 H     0.83181     4.60557    -7.97658

--Link1--
%nproc=6                                                                        
#opt cc-pVDZ PBE1PBE                                                            

 acroleina PBE0|cc-pVTZ                                                         
 CELL:    9. Central system with 10 distributed molecules.                      

 0  1
 C    -0.63060    -1.34878     0.00000
 C    -0.62737    -0.01953     0.00000
 C     0.63739     0.72428     0.00000
 O     0.72150     1.92553     0.00000
 H    -1.54706    -1.92553     0.00000
 H     0.30292    -1.90341     0.00000
 H    -1.54006     0.56647     0.00000
 H     1.54706     0.08554     0.00000
 H    -7.93323     0.37981    -6.48265
 O    -7.03646     0.19496    -6.73951
 H    -6.60954    -0.23733    -6.00793
 H     3.64177     0.72836    -5.16904
 O     3.30952     1.58235    -4.91474
 H     2.47136     1.70665    -5.34646
 H     1.50018    -9.11749     4.26964
 O     0.94733    -8.37686     4.49361
 H     1.13464    -7.67899     3.87535
 H    -7.85087    -5.97390     8.12905
 O    -8.42792    -5.88089     8.87919
 H    -8.28992    -5.01367     9.24419
 H    -9.26878     3.25866    -3.72592
 O    -8.63646     3.84902    -3.33096
 H    -9.10634     4.41402    -2.72736
 H    -8.56783     4.43536     1.26945
 O    -8.72769     4.68668     2.17258
 H    -9.32142     4.04678     2.54987
 H    -1.42890    -2.87416    -2.68400
 O    -2.35969    -2.91057    -2.49258
 H    -2.46117    -2.89452    -1.54717
 H     0.59344     1.01640    -5.30824
 O    -0.33066     0.82557    -5.19004
 H    -0.70999     1.53571    -4.68393
 H    -8.66985     7.28103    -7.43406
 O    -9.06232     8.14677    -7.46248
 H    -9.98008     8.04078    -7.68795
 H    -9.51559     2.72018     4.97283
 O    -9.75678     1.80232     5.03364
 H    -8.95561     1.29851     5.12668

--Link1--
%nproc=6                                                                        
#opt cc-pVDZ PBE1PBE                                                            

 acroleina PBE0|cc-pVTZ                                                         
 CELL:   10. Central system with 10 distributed molecules.                      

 0  1
 C    -0.63060    -1.34878     0.00000
 C    -0.62737    -0.01953     0.00000
 C     0.63739     0.72428     0.00000
 O     0.72150     1.92553     0.00000
 H    -1.54706    -1.92553     0.00000
 H     0.30292    -1.90341     0.00000
 H    -1.54006     0.56647     0.00000
 H     1.54706     0.08554     0.00000
 H     5.41320     1.55435     3.53993
 O     5.13352     0.79277     4.03604
 H     4.50172     1.08575     4.68360
 H    -8.87734     8.53108    -0.21570
 O    -9.64140     8.30476    -0.73468
 H    -9.79494     7.37196    -0.63143
 H     2.86104    -6.55270     2.47547
 O     1.99161    -6.27966     2.20366
 H     1.53813    -7.04703     1.87222
 H    -5.25353    -9.94230    -3.13570
 O    -4.57349    -9.52532    -3.65341
 H    -4.05189    -8.98853    -3.06679
 H    -3.59063    -0.56647    -4.11608
 O    -3.42231     0.35692    -3.96328
 H    -2.56355     0.43156    -3.56166
 H    -9.74789     3.87968    -7.85386
 O    -9.20177     3.47928    -7.18619
 H    -9.21951     4.04407    -6.42132
 H     7.47858     5.21832     0.61209
 O     6.63031     5.02107     0.99405
 H     6.75046     4.30884     1.61262
 H     7.82853    -4.72738    -5.70356
 O     8.21642    -5.56968    -5.49280
 H     7.68004    -6.24377    -5.89559
 H    -7.29791     5.21071    -8.69843
 O    -7.34027     6.03462    -9.17142
 H    -8.25661     6.27709    -9.24805
 H    -6.96604    -0.78576    -0.84197
 O    -7.70938    -0.23074    -1.05113
 H    -8.08307     0.07300    -0.23110

--Link1--
%nproc=6                                                                        
#opt cc-pVDZ PBE1PBE                                                            

 acroleina PBE0|cc-pVTZ                                                         
 CELL:   11. Central system with 10 distributed molecules.                      

 0  1
 C    -0.63060    -1.34878     0.00000
 C    -0.62737    -0.01953     0.00000
 C     0.63739     0.72428     0.00000
 O     0.72150     1.92553     0.00000
 H    -1.54706    -1.92553     0.00000
 H     0.30292    -1.90341     0.00000
 H    -1.54006     0.56647     0.00000
 H     1.54706     0.08554     0.00000
 H     5.98638    -5.68389     4.07128
 O     5.33024    -5.83372     3.39943
 H     4.81523    -6.58890     3.66174
 H    -1.65495     2.45761    -0.65260
 O    -2.30756     3.11042    -0.42396
 H    -1.92401     3.96753    -0.57434
 H     9.46811    -7.34392    -3.46291
 O     9.16512    -6.48464    -3.73527
 H     8.37819    -6.28527    -3.23996
 H    -8.46246    -5.28581    -5.84845
 O    -7.77174    -4.63219    -5.84268
 H    -8.18453    -3.77549    -5.84206
 H    -8.20674    -0.85461    -7.57065
 O    -8.69876    -0.86789    -8.38434
 H    -8.95613    -1.76793    -8.55178
 H    -6.70033     4.04617     0.83803
 O    -5.75317     4.10833     0.78004
 H    -5.40357     3.22425     0.80309
 H    -2.21126     2.55460     7.89073
 O    -2.90754     3.04691     7.46981
 H    -2.50312     3.73421     6.95174
 H    -6.62570    -3.94282     2.22435
 O    -6.51666    -4.59870     1.54444
 H    -7.09087    -4.36549     0.82316
 H     2.13674    -4.68306     4.82099
 O     1.71307    -4.18406     4.13118
 H     0.82118    -4.50372     4.04930
 H     9.12830     6.00645     8.36778
 O     9.48964     5.12764     8.40614
 H     9.53220     4.79358     7.51679

--Link1--
%nproc=6                                                                        
#opt cc-pVDZ PBE1PBE                                                            

 acroleina PBE0|cc-pVTZ                                                         
 CELL:   12. Central system with 10 distributed molecules.                      

 0  1
 C    -0.63060    -1.34878     0.00000
 C    -0.62737    -0.01953     0.00000
 C     0.63739     0.72428     0.00000
 O     0.72150     1.92553     0.00000
 H    -1.54706    -1.92553     0.00000
 H     0.30292    -1.90341     0.00000
 H    -1.54006     0.56647     0.00000
 H     1.54706     0.08554     0.00000
 H    -4.87535     3.22714    -6.83433
 O    -5.68028     2.81230    -7.12474
 H    -6.37551     3.08737    -6.53708
 H     9.98898     3.47290    -3.39438
 O     9.36628     3.39688    -4.10909
 H     8.56305     3.82888    -3.83977
 H    -7.28899    -4.29903     3.94996
 O    -7.96711    -4.81608     3.52907
 H    -8.26043    -5.47094     4.15315
 H    -0.78192    -7.58401    -4.82796
 O    -1.07334    -8.46412    -5.03969
 H    -0.30715    -9.02731    -5.05128
 H     5.78102    -1.91212     0.17586
 O     5.44580    -1.64613    -0.67339
 H     5.51712    -0.69945    -0.72865
 H    -4.49726    -1.89506     3.91559
 O    -5.16541    -1.59180     4.52053
 H    -5.50901    -2.35225     4.97659
 H    -5.85756     7.71039    -4.69700
 O    -5.87467     6.85803    -4.27565
 H    -6.47344     6.30529    -4.76584
 H    -6.44636     7.31251     7.76725
 O    -6.52885     8.22647     7.51783
 H    -6.69076     8.25697     6.58124
 H     3.13096     7.26335    -3.60569
 O     2.40336     7.85415    -3.76659
 H     2.31788     7.95768    -4.70804
 H    -4.22771    -5.13318    -1.15416
 O    -3.50425    -4.78104    -0.64725
 H    -3.76358    -4.78483     0.26767

--Link1--
%nproc=6                                                                        
#opt cc-pVDZ PBE1PBE                                                            

 acroleina PBE0|cc-pVTZ                                                         
 CELL:   13. Central system with 10 distributed molecules.                      

 0  1
 C    -0.63060    -1.34878     0.00000
 C    -0.62737    -0.01953     0.00000
 C     0.63739     0.72428     0.00000
 O     0.72150     1.92553     0.00000
 H    -1.54706    -1.92553     0.00000
 H     0.30292    -1.90341     0.00000
 H    -1.54006     0.56647     0.00000
 H     1.54706     0.08554     0.00000
 H     9.15492    -7.70494    -4.45522
 O     8.22389    -7.77681    -4.27531
 H     8.04094    -8.68408    -4.05686
 H     2.53557    -1.44586     5.56816
 O     2.87726    -2.06417     6.20477
 H     2.31216    -2.03408     6.96903
 H    -9.98858    -6.78830     5.63880
 O    -9.21647    -6.36797     6.00147
 H    -8.63829    -6.15195     5.27801
 H    -3.58669    -6.19885    -1.54464
 O    -2.69763    -5.91560    -1.36110
 H    -2.66097    -4.97460    -1.49348
 H     8.91389     4.31690     6.88627
 O     8.20196     3.70789     7.04940
 H     8.02713     3.71137     7.98415
 H    -2.61826     8.99041     3.17073
 O    -3.42514     9.38954     2.86415
 H    -3.42849     9.34180     1.91438
 H     4.27138    -9.24228    -7.70633
 O     3.45291    -8.94771    -7.32203
 H     3.40443    -8.00450    -7.43309
 H    -4.90956     6.67461    -3.51125
 O    -5.39408     7.33233    -3.02444
 H    -4.76621     7.95866    -2.68118
 H     5.48890    -7.31060     1.62626
 O     5.31459    -7.89574     0.89717
 H     6.11173    -7.96206     0.38286
 H     4.26920    -3.16449    -9.08842
 O     4.41775    -4.04202    -9.42341
 H     3.91548    -4.64520    -8.88653

--Link1--
%nproc=6                                                                        
#opt cc-pVDZ PBE1PBE                                                            

 acroleina PBE0|cc-pVTZ                                                         
 CELL:   14. Central system with 10 distributed molecules.                      

 0  1
 C    -0.63060    -1.34878     0.00000
 C    -0.62737    -0.01953     0.00000
 C     0.63739     0.72428     0.00000
 O     0.72150     1.92553     0.00000
 H    -1.54706    -1.92553     0.00000
 H     0.30292    -1.90341     0.00000
 H    -1.54006     0.56647     0.00000
 H     1.54706     0.08554     0.00000
 H    -6.66108     6.09373     6.98348
 O    -6.86082     5.66501     6.15847
 H    -7.44986     6.23232     5.67315
 H    -6.90836    -5.02307     8.78228
 O    -6.14226    -5.03581     8.21900
 H    -6.09060    -4.19263     7.78227
 H     5.16110    -5.80329     5.71504
 O     5.77753    -5.07925     5.72643
 H     6.65473    -5.44649     5.72664
 H     4.00071     6.47830    -6.02999
 O     3.31583     6.99480    -6.44048
 H     2.48087     6.68432    -6.10762
 H     7.56400     9.25995    -0.50638
 O     7.90026     8.46734    -0.91016
 H     8.27002     7.92636    -0.22098
 H     5.85427    -7.50017    -0.98987
 O     5.29163    -6.77261    -1.23159
 H     5.70617    -6.31445    -1.95449
 H    -5.41030    -5.31362     0.24878
 O    -4.72512    -4.65651     0.19334
 H    -3.89124    -5.09763     0.31341
 H    -8.25805     7.32226    -5.83607
 O    -7.65999     7.94127    -6.24041
 H    -8.02094     8.18108    -7.08690
 H     5.19616    -7.00547    -4.12139
 O     4.36074    -7.45945    -4.10351
 H     4.10565    -7.63089    -5.00344
 H     2.36575    -2.51904    -7.39856
 O     2.52932    -3.45566    -7.41683
 H     3.46805    -3.58667    -7.33961

--Link1--
%nproc=6                                                                        
#opt cc-pVDZ PBE1PBE                                                            

 acroleina PBE0|cc-pVTZ                                                         
 CELL:   15. Central system with 10 distributed molecules.                      

 0  1
 C    -0.63060    -1.34878     0.00000
 C    -0.62737    -0.01953     0.00000
 C     0.63739     0.72428     0.00000
 O     0.72150     1.92553     0.00000
 H    -1.54706    -1.92553     0.00000
 H     0.30292    -1.90341     0.00000
 H    -1.54006     0.56647     0.00000
 H     1.54706     0.08554     0.00000
 H     8.35941     4.79710    -3.14675
 O     8.24260     5.73972    -3.19329
 H     7.50737     5.96775    -2.63491
 H    -3.21903     1.93637    -6.82935
 O    -2.86105     2.60429    -6.25483
 H    -3.28932     3.42674    -6.46574
 H     5.02222     4.83027     4.89079
 O     4.95286     3.89196     5.02899
 H     4.04608     3.64474     4.88410
 H     4.14775    -6.48769    -8.79922
 O     3.95210    -5.66593    -9.23601
 H     3.73333    -5.02746    -8.56605
 H     4.94002    -0.96483    -9.47542
 O     5.40563    -0.58739    -8.73712
 H     5.02453    -0.94402    -7.94219
 H    -5.60994     1.35515    -0.19757
 O    -5.93480     0.58464    -0.65047
 H    -6.51601     0.87994    -1.34281
 H    -5.57555     7.01379    -3.01904
 O    -6.37969     6.56812    -3.26210
 H    -6.96877     7.21632    -3.63247
 H    -3.82844     5.13786    -1.92801
 O    -3.04131     4.63268    -1.75608
 H    -3.18315     4.14027    -0.95498
 H    -7.57554     6.32979    -8.15208
 O    -8.29695     6.61612    -8.70156
 H    -7.93978     7.18658    -9.37340
 H    -6.19536    -4.70816     2.10978
 O    -6.13390    -5.46614     2.68077
 H    -6.60239    -5.26249     3.48288

--Link1--
%nproc=6                                                                        
#opt cc-pVDZ PBE1PBE                                                            

 acroleina PBE0|cc-pVTZ                                                         
 CELL:   16. Central system with 10 distributed molecules.                      

 0  1
 C    -0.63060    -1.34878     0.00000
 C    -0.62737    -0.01953     0.00000
 C     0.63739     0.72428     0.00000
 O     0.72150     1.92553     0.00000
 H    -1.54706    -1.92553     0.00000
 H     0.30292    -1.90341     0.00000
 H    -1.54006     0.56647     0.00000
 H     1.54706     0.08554     0.00000
 H    -7.07324     1.38930    -4.63219
 O    -7.56080     1.69343    -5.38991
 H    -7.17148     2.51319    -5.67411
 H    -2.47495     5.57467    -6.60880
 O    -3.42397     5.53108    -6.65132
 H    -3.73677     6.36385    -6.98745
 H    -5.22130     2.96571     3.39459
 O    -5.94431     3.57222     3.51186
 H    -5.58860     4.45386     3.48892
 H    -3.71080    -2.75969    -1.99134
 O    -4.38780    -2.88886    -2.64656
 H    -5.16634    -2.42883    -2.35229
 H     6.81542     0.45854    -0.32881
 O     6.81540    -0.21476     0.34277
 H     6.44966    -1.00474    -0.04001
 H     3.59468    -8.49097    -6.50619
 O     3.62006    -7.82493    -7.18449
 H     3.61704    -6.97591    -6.75611
 H     6.95404    -1.60315     3.06206
 O     6.88580    -2.36083     3.63268
 H     7.73674    -2.49752     4.03461
 H    -3.45294    -2.24990    -0.22164
 O    -4.20686    -1.67583    -0.30167
 H    -4.55606    -1.53396     0.57141
 H     2.43433     1.76994    -1.35654
 O     2.40938     2.54018    -1.91372
 H     2.76148     2.29458    -2.76228
 H     6.01079     6.00206     6.10570
 O     5.07431     6.02917     6.26885
 H     4.69488     5.23563     5.90736

--Link1--
%nproc=6                                                                        
#opt cc-pVDZ PBE1PBE                                                            

 acroleina PBE0|cc-pVTZ                                                         
 CELL:   17. Central system with 10 distributed molecules.                      

 0  1
 C    -0.63060    -1.34878     0.00000
 C    -0.62737    -0.01953     0.00000
 C     0.63739     0.72428     0.00000
 O     0.72150     1.92553     0.00000
 H    -1.54706    -1.92553     0.00000
 H     0.30292    -1.90341     0.00000
 H    -1.54006     0.56647     0.00000
 H     1.54706     0.08554     0.00000
 H    -7.57659     2.09734     6.73745
 O    -7.94725     2.97034     6.66795
 H    -7.22890     3.59269     6.69979
 H     3.72696    -3.48381    -0.02614