#  i =       73, E =     -2964.8652250756                                         
#  CELL:    1. Central system with  3 distributed molecules.                      
! RHF ZINDO/S TightSCF DIIS NoRICO NoMOPrint                                    
%cis NRoots 40                                                                  
end                                                                             
* xyz 0  1
 I    -3.51537    -3.72774   -58.81080
 I    -3.51536     5.16391   -58.81080
 I     5.24879    -3.72774   -58.81080
 I     5.24879     5.16391   -58.81080
 I    -4.62143    -8.11341   -58.64950
 I    -4.62143     0.77824   -58.64940
 I     4.14272    -8.11341   -58.64940
 I     4.14271     0.77824   -58.64950
 I    -7.98948    -4.63738   -57.81970
 I    -7.98948     4.25427   -57.81970
 I     0.77466    -4.63738   -57.81970
 I     0.77466     4.25427   -57.81970
 I    -8.77928     8.80194   -57.45730
 I    -8.77927    -0.08970   -57.45730
 I    -0.01513     8.80194   -57.45730
 I    -0.01512    -0.08971   -57.45730
 I    -5.38947    -1.72543   -55.03220
 I    -5.38946     7.16622   -55.03220
 I     3.37470    -1.72543   -55.03220
 I     3.37469     7.16621   -55.03220
 I    -2.70214    -6.57169   -55.01060
 I    -2.70214     2.31997   -55.01060
 I     6.06201    -6.57169   -55.01060
 I     6.06200     2.31997   -55.01060
 I    -8.04198    -8.27152   -52.62630
 I    -8.04198     0.62014   -52.62630
 I     0.72215    -8.27153   -52.62630
 I     0.72215     0.62012   -52.62630
 I    -0.11310    -3.67076   -52.29390
 I    -0.11309     5.22090   -52.29380
 I     8.65106    -3.67075   -52.29380
 I     8.65106     5.22089   -52.29390
 I    -3.47442    -0.23894   -51.46410
 I    -3.47442     8.65271   -51.46410
 I     5.28975    -0.23895   -51.46410
 I     5.28974     8.65271   -51.46410
 I    -4.34285    -4.50331   -51.23500
 I    -4.34286     4.38834   -51.23500
 I     4.42132    -4.50328   -51.23500
 I     4.42131     4.38837   -51.23500
 I    -1.02711    -6.21497   -48.78260
 I    -1.02711     2.67668   -48.78260
 I     7.73703    -6.21497   -48.78260
 I     7.73703     2.67669   -48.78260
 I    -6.99106    -2.08776   -48.77030
 I    -6.99108     6.80390   -48.77030
 I     1.77306    -2.08775   -48.77030
 I     1.77307     6.80390   -48.77030
 I    -3.68733    -3.83272   -46.36870
 I    -3.68734     5.05893   -46.36870
 I     5.07681    -3.83271   -46.36870
 I     5.07681     5.05894   -46.36870
 I    -4.52558    -8.08237   -46.09840
 I    -4.52558     0.80927   -46.09840
 I     4.23854    -8.08236   -46.09840
 I     4.23854     0.80929   -46.09840
 I    -7.87524    -4.65931   -45.22650
 I    -7.87523     4.23235   -45.22650
 I     0.88893    -4.65931   -45.22650
 I     0.88893     4.23234   -45.22650
 I    -8.71820    -8.91642   -44.94340
 I    -8.71819    -0.02476   -44.94340
 I     0.04594    -8.91644   -44.94340
 I     0.04594    -0.02478   -44.94340
 I    -5.40376    -1.75624   -42.53180
 I    -5.40374     7.13540   -42.53190
 I     3.36042    -1.75624   -42.53190
 I     3.36041     7.13541   -42.53180
 I    -2.61571    -6.53222   -42.52820
 I    -2.61571     2.35943   -42.52810
 I     6.14842    -6.53223   -42.52820
 I     6.14842     2.35943   -42.52820
 I    -8.07197    -8.25778   -40.12080
 I    -8.07198     0.63388   -40.12080
 I     0.69217    -8.25777   -40.12080
 I     0.69218     0.63386   -40.12080
 I    -0.13753    -3.63243   -39.85830
 I    -0.13752     5.25922   -39.85820
 I     8.62663    -3.63243   -39.85820
 I     8.62662     5.25921   -39.85830
 I    -3.49867    -0.19499   -38.97560
 I    -3.49868     8.69665   -38.97560
 I     5.26547    -0.19500   -38.97560
 I     5.26547     8.69666   -38.97560
 I    -4.34065    -4.45400   -38.70410
 I    -4.34064     4.43763   -38.70410
 I     4.42351    -4.45401   -38.70410
 I     4.42350     4.43765   -38.70410
 I    -1.02666    -6.19024   -36.29050
 I    -1.02666     2.70141   -36.29050
 I     7.73749    -6.19024   -36.29050
 I     7.73749     2.70141   -36.29050
 I    -7.00422    -2.07605   -36.28630
 I    -7.00421     6.81560   -36.28630
 I     1.75995    -2.07604   -36.28630
 I     1.75993     6.81561   -36.28630
 I    -3.69726    -3.78825   -33.88400
 I    -3.69727     5.10340   -33.88400
 I     5.06688    -3.78825   -33.88400
 I     5.06689     5.10340   -33.88400
 I    -4.52360    -8.05798   -33.59500
 I    -4.52359     0.83365   -33.59500
 I     4.24055    -8.05799   -33.59500
 I     4.24056     0.83367   -33.59500
 I    -7.87936    -4.62840   -32.72360
 I    -7.87935     4.26326   -32.72360
 I     0.88479    -4.62838   -32.72360
 I     0.88479     4.26326   -32.72360
 I    -8.72304    -8.86370   -32.47380
 I    -8.72304     0.02795   -32.47380
 I     0.04111    -8.86371   -32.47380
 I     0.04110     0.02795   -32.47380
 I    -5.43269    -1.73694   -30.04260
 I    -5.43270     7.15470   -30.04270
 I     3.33145    -1.73693   -30.04270
 I     3.33146     7.15470   -30.04260
 I    -2.61609    -6.47193   -30.03370
 I    -2.61610     2.41972   -30.03370
 I     6.14802    -6.47193   -30.03370
 I     6.14802     2.41972   -30.03370
 I    -8.07016    -8.19024   -27.55504
 I    -8.07015     0.70141   -27.55503
 I     0.69399    -8.19024   -27.55501
 I     0.69400     0.70141   -27.55501
 I    -0.18928    -3.55271   -27.36539
 I    -0.18927     5.33893   -27.36540
 I     8.57488    -3.55272   -27.36540
 I     8.57487     5.33893   -27.36540
 I    -3.54859    -0.12478   -26.53996
 I    -3.54862     8.76688   -26.54000
 I     5.21556    -0.12479   -26.53996
 I     5.21557     8.76686   -26.53996
 I    -4.38305    -4.43214   -26.17202
 I    -4.38305     4.45951   -26.17204
 I     4.38110    -4.43215   -26.17204
 I     4.38110     4.45950   -26.17203
 I    -0.93259    -6.10333   -23.79841
 I    -0.93260     2.78832   -23.79840
 I     7.83154    -6.10334   -23.79842
 I     7.83156     2.78831   -23.79842
 I    -7.01716    -2.08016   -23.76740
 I    -7.01716     6.81148   -23.76743
 I     1.74699    -2.08016   -23.76742
 I     1.74700     6.81146   -23.76740
 I    -3.59961    -3.68980   -21.34172
 I    -3.59960     5.20188   -21.34174
 I     5.16453    -3.68980   -21.34174
 I     5.16454     5.20185   -21.34172
 I    -4.40153    -8.05600   -20.94830
 I    -4.40154     0.83567   -20.94827
 I     4.36260    -8.05599   -20.94826
 I     4.36261     0.83566   -20.94829
 I    -7.78086    -4.57777   -20.12711
 I    -7.78085     4.31388   -20.12711
 I     0.98330    -4.57777   -20.12709
 I     0.98331     4.31387   -20.12708
 I     8.63511    -8.97523   -20.00002
 I     8.63511    -0.08359   -20.00000
 I    -0.12907    -8.97527   -20.00004
 I    -0.12904    -0.08357   -20.00002
Pb    -6.00939    -2.16725   -58.04360
Pb    -6.00938     6.72440   -58.04360
Pb     2.75477    -2.16725   -58.04360
Pb     2.75477     6.72440   -58.04360
Pb    -1.98387    -6.59071   -58.00640
Pb    -1.98387     2.30094   -58.00640
Pb     6.78028    -6.59071   -58.00640
Pb     6.78027     2.30094   -58.00640
Pb    -6.18704    -1.98309   -51.87880
Pb    -6.18704     6.90856   -51.87890
Pb     2.57712    -1.98308   -51.87890
Pb     2.57711     6.90857   -51.87880
Pb    -1.75634    -6.43554   -51.88910
Pb    -1.75633     2.45611   -51.88910
Pb     7.00782    -6.43554   -51.88910
Pb     7.00782     2.45610   -51.88910
Pb    -6.19323    -1.92592   -45.65230
Pb    -6.19324     6.96574   -45.65230
Pb     2.57091    -1.92591   -45.65230
Pb     2.57091     6.96573   -45.65230
Pb    -1.81923    -6.37518   -45.64730
Pb    -1.81924     2.51647   -45.64730
Pb     6.94489    -6.37518   -45.64730
Pb     6.94490     2.51648   -45.64730
Pb    -6.20600    -1.90290   -39.41020
Pb    -6.20599     6.98874   -39.41020
Pb     2.55817    -1.90290   -39.41020
Pb     2.55815     6.98875   -39.41020
Pb    -1.82760    -6.35325   -39.41040
Pb    -1.82760     2.53840   -39.41040
Pb     6.93655    -6.35325   -39.41040
Pb     6.93654     2.53840   -39.41040
Pb    -6.22841    -1.89420   -33.16210
Pb    -6.22841     6.99746   -33.16210
Pb     2.53575    -1.89419   -33.16210
Pb     2.53575     6.99745   -33.16210
Pb    -1.83614    -6.31439   -33.17320
Pb    -1.83614     2.57725   -33.17320
Pb     6.92800    -6.31440   -33.17320
Pb     6.92801     2.57726   -33.17320
Pb    -6.23401    -1.82245   -26.92892
Pb    -6.23402     7.06920   -26.92896
Pb     2.53015    -1.82245   -26.92895
Pb     2.53015     7.06920   -26.92892
Pb    -1.90008    -6.24727   -26.91838
Pb    -1.90008     2.64438   -26.91838
Pb     6.86406    -6.24727   -26.91840
Pb     6.86407     2.64437   -26.91840
Pb    -6.40512    -1.64976   -20.75142
Pb    -6.40512     7.24189   -20.75145
Pb     2.35903    -1.64976   -20.75144
Pb     2.35903     7.24188   -20.75142
Pb    -1.66652    -6.10427   -20.80619
Pb    -1.66653     2.78740   -20.80618
Pb     7.09761    -6.10427   -20.80620
Pb     7.09763     2.78738   -20.80620
 H    -2.28175    -2.54522   -56.38040
 H    -2.28175     6.34642   -56.38040
 H     6.48243    -2.54524   -56.38040
 H     6.48242     6.34641   -56.38040
 H    -6.84555    -6.49472   -56.46130
 H    -6.84555     2.39693   -56.46130
 H     1.91860    -6.49472   -56.46130
 H     1.91860     2.39693   -56.46130
 H    -0.79952    -3.09021   -55.54430
 H    -0.79952     5.80143   -55.54430
 H     7.96467    -3.09019   -55.54430
 H     7.96467     5.80145   -55.54430
 H    -5.44330    -7.20605   -55.88450
 H    -5.44330     1.68560   -55.88450
 H     3.32084    -7.20605   -55.88450
 H     3.32084     1.68561   -55.88450
 H    -1.20632    -0.71439   -55.27650
 H    -1.20632     8.17726   -55.27650
 H     7.55782    -0.71438   -55.27650
 H     7.55781     8.17726   -55.27640
 H    -5.62972    -4.91985   -55.07710
 H    -5.62973     3.97180   -55.07710
 H     3.13441    -4.91985   -55.07710
 H     3.13440     3.97181   -55.07710
 H    -2.40628    -3.40242   -54.80920
 H    -2.40627     5.48922   -54.80920
 H     6.35791    -3.40244   -54.80920
 H     6.35790     5.48922   -54.80920
 H    -6.91599    -7.61172   -55.20690
 H    -6.91598     1.27993   -55.20690
 H     1.84816    -7.61172   -55.20690
 H     1.84816     1.27993   -55.20690
 H    -2.68111    -1.01035   -54.52110
 H    -2.68111     7.88129   -54.52110
 H     6.08299    -1.01035   -54.52110
 H     6.08301     7.88129   -54.52110
 H    -7.23325    -5.32987   -54.39320
 H    -7.23325     3.56179   -54.39320
 H     1.53089    -5.32988   -54.39320
 H     1.53088     3.56178   -54.39320
 H    -1.25961    -1.48780   -53.77950
 H    -1.25961     7.40384   -53.77950
 H     7.50451    -1.48779   -53.77960
 H     7.50453     7.40385   -53.77960
 H    -5.75204    -6.07595   -53.71360
 H    -5.75204     2.81572   -53.71360
 H     3.01210    -6.07594   -53.71360
 H     3.01209     2.81572   -53.71360
 H    -6.65339    -6.87872   -50.23710
 H    -6.65338     2.01288   -50.23710
 H     2.11084    -6.87863   -50.23720
 H     2.11084     2.01299   -50.23720
 H    -2.27494    -2.26748   -50.07300
 H    -2.27494     6.62417   -50.07300
 H     6.48922    -2.26750   -50.07300
 H     6.48921     6.62417   -50.07300
 H    -5.15660    -7.41132   -49.40870
 H    -5.15659     1.48032   -49.40870
 H     3.60757    -7.41130   -49.40880
 H     3.60758     1.48034   -49.40880
 H    -0.84974    -2.77540   -49.35070
 H    -0.84974     6.11625   -49.35070
 H     7.91440    -2.77542   -49.35070
 H     7.91440     6.11625   -49.35070
 H    -5.69134    -5.07727   -48.95180
 H    -5.69135     3.81437   -48.95190
 H     3.07283    -5.07725   -48.95180
 H     3.07283     3.81439   -48.95180
 H    -1.26866    -0.46048   -48.78500
 H    -1.26865     8.43117   -48.78500
 H     7.49554    -0.46049   -48.78500
 H     7.49552     8.43116   -48.78500
 H    -6.75739    -7.85547   -48.73720
 H    -6.75737     1.03617   -48.73710
 H     2.00675    -7.85544   -48.73740
 H     2.00675     1.03621   -48.73740
 H    -2.32658    -3.25007   -48.71130
 H    -2.32658     5.64158   -48.71130
 H     6.43757    -3.25006   -48.71120
 H     6.43757     5.64158   -48.71120
 H    -7.16631    -5.51721   -48.27820
 H    -7.16631     3.37444   -48.27820
 H     1.59782    -5.51722   -48.27820
 H     1.59782     3.37443   -48.27820
 H    -2.86996    -0.94065   -48.14140
 H    -2.86995     7.95100   -48.14140
 H     5.89424    -0.94061   -48.14140
 H     5.89422     7.95102   -48.14140
 H    -5.73684    -5.98513   -47.54000
 H    -5.73684     2.90655   -47.54000
 H     3.02727    -5.98520   -47.54010
 H     3.02728     2.90647   -47.54010
 H    -1.37400    -1.50451   -47.33110
 H    -1.37400     7.38713   -47.33110
 H     7.39019    -1.50448   -47.33110
 H     7.39017     7.38714   -47.33110
 H    -2.26416    -2.36312   -43.98400
 H    -2.26415     6.52849   -43.98400
 H     6.50003    -2.36313   -43.98400
 H     6.50001     6.52854   -43.98400
 H    -6.65589    -6.74326   -43.81250
 H    -6.65590     2.14838   -43.81250
 H     2.10826    -6.74326   -43.81250
 H     2.10826     2.14839   -43.81250
 H    -0.76523    -2.92047   -43.17600
 H    -0.76522     5.97117   -43.17600
 H     7.99896    -2.92045   -43.17600
 H     7.99895     5.97120   -43.17600
 H    -5.22859    -7.22301   -43.07530
 H    -5.22859     1.66864   -43.07530
 H     3.53556    -7.22300   -43.07530
 H     3.53556     1.66865   -43.07530
 H    -1.31407    -0.61095   -42.61450
 H    -1.31407     8.28069   -42.61450
 H     7.45009    -0.61092   -42.61450
 H     7.45008     8.28071   -42.61450
 H    -5.65037    -4.89405   -42.57700
 H    -5.65038     3.99759   -42.57700
 H     3.11374    -4.89405   -42.57700
 H     3.11374     3.99760   -42.57700
 H    -2.36483    -3.40324   -42.52740
 H    -2.36481     5.48840   -42.52740
 H     6.39937    -3.40326   -42.52740
 H     6.39935     5.48840   -42.52740
 H    -6.70534    -7.68132   -42.42150
 H    -6.70533     1.21032   -42.42150
 H     2.05881    -7.68133   -42.42150
 H     2.05881     1.21031   -42.42150
 H    -2.79021    -1.08805   -41.97180
 H    -2.79021     7.80360   -41.97180
 H     5.97395    -1.08807   -41.97180
 H     5.97394     7.80359   -41.97180
 H    -7.25055    -5.35805   -41.91810
 H    -7.25055     3.53358   -41.91810
 H     1.51357    -5.35807   -41.91810
 H     1.51357     3.53357   -41.91810
 H    -1.36132    -1.58484   -41.24790
 H    -1.36132     7.30682   -41.24790
 H     7.40283    -1.58483   -41.24790
 H     7.40284     7.30681   -41.24790
 H    -5.75251    -5.89774   -41.09520
 H    -5.75251     2.99390   -41.09520
 H     3.01161    -5.89774   -41.09510
 H     3.01161     2.99390   -41.09510
 H    -6.64957    -6.81431   -37.74170
 H    -6.64957     2.07732   -37.74170
 H     2.11459    -6.81431   -37.74170
 H     2.11459     2.07735   -37.74170
 H    -2.27153    -2.29441   -37.58290
 H    -2.27150     6.59724   -37.58290
 H     6.49266    -2.29442   -37.58290
 H     6.49263     6.59725   -37.58290
 H    -5.15250    -7.36938   -36.92800
 H    -5.15250     1.52225   -36.92800
 H     3.61165    -7.36939   -36.92800
 H     3.61165     1.52225   -36.92800
 H    -0.84236    -2.76199   -36.84000
 H    -0.84236     6.12965   -36.83990
 H     7.92180    -2.76201   -36.83990
 H     7.92180     6.12967   -36.84000
 H    -5.69428    -5.05346   -36.38830
 H    -5.69428     3.83817   -36.38830
 H     3.06989    -5.05346   -36.38830
 H     3.06989     3.83818   -36.38830
 H    -1.28954    -0.43784   -36.33950
 H    -1.28955     8.45380   -36.33950
 H     7.47460    -0.43785   -36.33950
 H     7.47461     8.45381   -36.33950
 H    -6.75391    -7.84086   -36.27590
 H    -6.75391     1.05077   -36.27590
 H     2.01023    -7.84087   -36.27590
 H     2.01023     1.05078   -36.27590
 H    -2.31829    -3.23581   -36.19450
 H    -2.31831     5.65587   -36.19450
 H     6.44585    -3.23578   -36.19450
 H     6.44586     5.65584   -36.19450
 H    -7.17118    -5.51948   -35.74100
 H    -7.17118     3.37216   -35.74100
 H     1.59297    -5.51947   -35.74100
 H     1.59297     3.37217   -35.74100
 H    -2.88636    -0.91958   -35.68490
 H    -2.88641     7.97210   -35.68500
 H     5.87774    -0.91956   -35.68500
 H     5.87778     7.97207   -35.68490
 H    -5.74431    -6.01440   -35.01270
 H    -5.74431     2.87723   -35.01270
 H     3.01983    -6.01440   -35.01270
 H     3.01983     2.87724   -35.01270
 H    -1.38487    -1.44638   -34.86040
 H    -1.38496     7.44530   -34.86040
 H     7.37919    -1.44634   -34.86040
 H     7.37928     7.44527   -34.86040
 H    -2.28952    -2.30622   -31.50530
 H    -2.28951     6.58543   -31.50540
 H     6.47466    -2.30621   -31.50540
 H     6.47465     6.58543   -31.50540
 H    -6.66132    -6.77627   -31.28050
 H    -6.66133     2.11534   -31.28050
 H     2.10280    -6.77630   -31.28050
 H     2.10280     2.11535   -31.28050
 H    -0.79432    -2.87385   -30.69520
 H    -0.79432     6.01779   -30.69520
 H     7.96982    -2.87387   -30.69520
 H     7.96985     6.01781   -30.69520
 H    -5.22991    -7.21370   -30.52690
 H    -5.22990     1.67797   -30.52680
 H     3.53423    -7.21366   -30.52680
 H     3.53423     1.67798   -30.52690
 H    -1.30750    -0.54667   -30.16950
 H    -1.30748     8.34498   -30.16950
 H     7.45669    -0.54667   -30.16950
 H     7.45666     8.34498   -30.16950
 H    -5.66987    -4.87577   -30.09870
 H    -5.66995     4.01589   -30.09880
 H     3.09416    -4.87575   -30.09880
 H     3.09417     4.01589   -30.09870
 H    -2.39733    -3.32081   -30.03140
 H    -2.39735     5.57084   -30.03140
 H     6.36677    -3.32081   -30.03140
 H     6.36684     5.57084   -30.03140
 H    -6.70315    -7.66408   -29.85679
 H    -6.70310     1.22756   -29.85679
 H     2.06103    -7.66409   -29.85678
 H     2.06103     1.22755   -29.85679
 H    -2.78259    -0.99222   -29.50322
 H    -2.78258     7.89944   -29.50323
 H     5.98158    -0.99221   -29.50324
 H     5.98157     7.89943   -29.50323
 H    -7.27088    -5.32949   -29.43433
 H    -7.27092     3.56211   -29.43433
 H     1.49319    -5.32953   -29.43433
 H     1.49320     3.56210   -29.43432
 H    -1.35635    -1.50031   -28.78706
 H    -1.35637     7.39135   -28.78706
 H     7.40777    -1.50032   -28.78707
 H     7.40780     7.39135   -28.78706
 H    -5.77483    -5.83542   -28.58739
 H    -5.77483     3.05625   -28.58739
 H     2.98928    -5.83538   -28.58739
 H     2.98929     3.05624   -28.58738
 H    -6.63357    -6.62234   -25.03541
 H    -6.63353     2.26931   -25.03541
 H     2.13063    -6.62236   -25.03541
 H     2.13060     2.26932   -25.03541
 H    -2.38097    -2.31409   -25.04265
 H    -2.38098     6.57753   -25.04263
 H     6.38319    -2.31407   -25.04266
 H     6.38319     6.57757   -25.04266
 H    -5.15385    -7.35803   -24.34060
 H    -5.15380     1.53364   -24.34059
 H     3.61037    -7.35803   -24.34060
 H     3.61033     1.53363   -24.34060
 H    -0.95433    -2.76938   -24.29645
 H    -0.95431     6.12225   -24.29653
 H     7.80981    -2.76939   -24.29647
 H     7.80981     6.12226   -24.29647
 H    -5.48267    -5.06899   -23.54718
 H    -5.48267     3.82267   -23.54717
 H     3.28148    -5.06901   -23.54716
 H     3.28148     3.82266   -23.54717
 H    -1.24422    -0.37424   -24.05050
 H    -1.24421     8.51742   -24.05064
 H     7.51997    -0.37426   -24.05048
 H     7.51995     8.51740   -24.05049
 H    -6.76003    -7.76682   -23.66189
 H    -6.75999     1.12484   -23.66190
 H     2.00418    -7.76683   -23.66190
 H     2.00414     1.12484   -23.66190
 H    -2.42454    -3.06229   -23.53214
 H    -2.42455     5.82936   -23.53213
 H     6.33959    -3.06229   -23.53217
 H     6.33960     5.82934   -23.53215
 H    -6.95712    -5.47405   -22.87395
 H    -6.95713     3.41761   -22.87397
 H     1.80700    -5.47406   -22.87397
 H     1.80702     3.41761   -22.87396
 H    -2.84503    -0.68467   -23.30184
 H    -2.84503     8.20701   -23.30187
 H     5.91915    -0.68467   -23.30183
 H     5.91914     8.20696   -23.30183
 H    -5.55603    -6.17744   -22.28566
 H    -5.55604     2.71424   -22.28566
 H     3.20812    -6.17742   -22.28566
 H     3.20813     2.71423   -22.28566
 H    -1.35494    -1.20551   -22.46417
 H    -1.35490     7.68620   -22.46434
 H     7.40921    -1.20555   -22.46416
 H     7.40921     7.68611   -22.46417
 C    -1.81311    -2.70551   -55.40560
 C    -1.81311     6.18613   -55.40560
 C     6.95104    -2.70550   -55.40560
 C     6.95105     6.18613   -55.40560
 C    -6.23384    -5.70928   -54.62300
 C    -6.23385     3.18237   -54.62300
 C     2.53029    -5.70928   -54.62300
 C     2.53028     3.18237   -54.62300
 C    -6.19085    -7.08715   -49.26900
 C    -6.19084     1.80447   -49.26900
 C     2.57331    -7.08712   -49.26910
 C     2.57331     1.80452   -49.26910
 C    -1.83382    -1.25462   -48.29080
 C    -1.83382     7.63703   -48.29080
 C     6.93040    -1.25460   -48.29080
 C     6.93038     7.63704   -48.29080
 C    -1.80196    -2.60919   -43.02480
 C    -1.80195     6.28245   -43.02480
 C     6.96222    -2.60920   -43.02480
 C     6.96221     6.28246   -43.02480
 C    -6.21434    -5.67480   -42.06060
 C    -6.21434     3.21684   -42.06060
 C     2.54979    -5.67480   -42.06060
 C     2.54979     3.21684   -42.06060
 C    -6.18828    -7.05341   -36.78030
 C    -6.18828     1.83822   -36.78030
 C     2.57586    -7.05342   -36.78030
 C     2.57586     1.83823   -36.78030
 C    -1.84676    -1.22551   -35.82640
 C    -1.84677     7.66615   -35.82640
 C     6.91737    -1.22550   -35.82640
 C     6.91739     7.66614   -35.82640
 C    -1.82564    -2.54390   -30.54450
 C    -1.82564     6.34774   -30.54450
 C     6.93852    -2.54391   -30.54450
 C     6.93853     6.34774   -30.54450
 C    -6.23186    -5.64382   -29.56196
 C    -6.23189     3.24782   -29.56196
 C     2.53223    -5.64382   -29.56196
 C     2.53224     3.24782   -29.56195
 C    -6.15575    -6.97960   -24.12002
 C    -6.15573     1.91205   -24.12002
 C     2.60845    -6.97961   -24.12002
 C     2.60843     1.91206   -24.12002
 C    -1.82958    -1.06474   -23.43925
 C    -1.82955     7.82692   -23.43934
 C     6.93459    -1.06475   -23.43924
 C     6.93458     7.82689   -23.43925
 N    -6.36348    -6.83036   -55.59770
 N    -6.36348     2.06129   -55.59770
 N     2.40067    -6.83036   -55.59770
 N     2.40067     2.06129   -55.59770
 N    -1.73740    -1.39642   -54.69220
 N    -1.73740     7.49522   -54.69220
 N     7.02684    -1.39645   -54.69220
 N     7.02677     7.49521   -54.69220
 N    -1.82054    -2.46641   -49.16220
 N    -1.82054     6.42525   -49.16220
 N     6.94363    -2.46641   -49.16220
 N     6.94362     6.42525   -49.16220
 N    -6.19656    -5.83603   -48.45620
 N    -6.19656     3.05562   -48.45620
 N     2.56758    -5.83603   -48.45620
 N     2.56757     3.05562   -48.45620
 N    -6.20052    -6.91083   -42.89700
 N    -6.20052     1.98081   -42.89700
 N     2.56363    -6.91083   -42.89700
 N     2.56363     1.98082   -42.89700
 N    -1.81760    -1.39389   -42.15850
 N    -1.81760     7.49775   -42.15850
 N     6.94656    -1.39389   -42.15850
 N     6.94655     7.49775   -42.15850
 N    -1.81849    -2.45988   -36.66620
 N    -1.81849     6.43180   -36.66630
 N     6.94567    -2.45986   -36.66630
 N     6.94567     6.43178   -36.66620
 N    -6.19999    -5.83112   -35.92540
 N    -6.19999     3.06051   -35.92540
 N     2.56415    -5.83112   -35.92540
 N     2.56415     3.06053   -35.92540
 N    -6.20514    -6.90603   -30.36020
 N    -6.20514     1.98562   -30.36020
 N     2.55899    -6.90602   -30.36020
 N     2.55899     1.98562   -30.36020
 N    -1.81787    -1.31539   -29.69716
 N    -1.81787     7.57626   -29.69717
 N     6.94629    -1.31538   -29.69718
 N     6.94629     7.57626   -29.69716
 N    -1.90049    -2.38630   -24.13012
 N    -1.90047     6.50532   -24.13012
 N     6.86365    -2.38630   -24.13013
 N     6.86365     6.50533   -24.13012
 N    -6.03470    -5.84912   -23.15356
 N    -6.03471     3.04254   -23.15356
 N     2.72945    -5.84912   -23.15356
 N     2.72945     3.04254   -23.15356
 I    -3.51537    -3.72774    58.81080
 I    -3.51536     5.16391    58.81080
 I     5.24879    -3.72774    58.81080
 I     5.24879     5.16391    58.81080
 I    -4.62143    -8.11341    58.64950
 I    -4.62143     0.77824    58.64940
 I     4.14272    -8.11341    58.64940
 I     4.14271     0.77824    58.64950
 I    -7.98948    -4.63738    57.81970
 I    -7.98948     4.25427    57.81970
 I     0.77466    -4.63738    57.81970
 I     0.77466     4.25427    57.81970
 I    -8.77928     8.80194    57.45730
 I    -8.77927    -0.08970    57.45730
 I    -0.01513     8.80194    57.45730
 I    -0.01512    -0.08971    57.45730
 I    -5.38947    -1.72543    55.03220
 I    -5.38946     7.16622    55.03220
 I     3.37470    -1.72543    55.03220
 I     3.37469     7.16621    55.03220
 I    -2.70214    -6.57169    55.01060
 I    -2.70214     2.31997    55.01060
 I     6.06201    -6.57169    55.01060
 I     6.06200     2.31997    55.01060
 I    -8.04198    -8.27152    52.62630
 I    -8.04198     0.62014    52.62630
 I     0.72215    -8.27153    52.62630
 I     0.72215     0.62012    52.62630
 I    -0.11310    -3.67076    52.29390
 I    -0.11309     5.22090    52.29380
 I     8.65106    -3.67075    52.29380
 I     8.65106     5.22089    52.29390
 I    -3.47442    -0.23894    51.46410
 I    -3.47442     8.65271    51.46410
 I     5.28975    -0.23895    51.46410
 I     5.28974     8.65271    51.46410
 I    -4.34285    -4.50331    51.23500
 I    -4.34286     4.38834    51.23500
 I     4.42132    -4.50328    51.23500
 I     4.42131     4.38837    51.23500
 I    -1.02711    -6.21497    48.78260
 I    -1.02711     2.67668    48.78260
 I     7.73703    -6.21497    48.78260
 I     7.73703     2.67669    48.78260
 I    -6.99106    -2.08776    48.77030
 I    -6.99108     6.80390    48.77030
 I     1.77306    -2.08775    48.77030
 I     1.77307     6.80390    48.77030
 I    -3.68733    -3.83272    46.36870
 I    -3.68734     5.05893    46.36870
 I     5.07681    -3.83271    46.36870
 I     5.07681     5.05894    46.36870
 I    -4.52558    -8.08237    46.09840
 I    -4.52558     0.80927    46.09840
 I     4.23854    -8.08236    46.09840
 I     4.23854     0.80929    46.09840
 I    -7.87524    -4.65931    45.22650
 I    -7.87523     4.23235    45.22650
 I     0.88893    -4.65931    45.22650
 I     0.88893     4.23234    45.22650
 I    -8.71820    -8.91642    44.94340
 I    -8.71819    -0.02476    44.94340
 I     0.04594    -8.91644    44.94340
 I     0.04594    -0.02478    44.94340
 I    -5.40376    -1.75624    42.53180
 I    -5.40374     7.13540    42.53190
 I     3.36042    -1.75624    42.53190
 I     3.36041     7.13541    42.53180
 I    -2.61571    -6.53222    42.52820
 I    -2.61571     2.35943    42.52810
 I     6.14842    -6.53223    42.52820
 I     6.14842     2.35943    42.52820
 I    -8.07197    -8.25778    40.12080
 I    -8.07198     0.63388    40.12080
 I     0.69217    -8.25777    40.12080
 I     0.69218     0.63386    40.12080
 I    -0.13753    -3.63243    39.85830
 I    -0.13752     5.25922    39.85820
 I     8.62663    -3.63243    39.85820
 I     8.62662     5.25921    39.85830
 I    -3.49867    -0.19499    38.97560
 I    -3.49868     8.69665    38.97560
 I     5.26547    -0.19500    38.97560
 I     5.26547     8.69666    38.97560
 I    -4.34065    -4.45400    38.70410
 I    -4.34064     4.43763    38.70410
 I     4.42351    -4.45401    38.70410
 I     4.42350     4.43765    38.70410
 I    -1.02666    -6.19024    36.29050
 I    -1.02666     2.70141    36.29050
 I     7.73749    -6.19024    36.29050
 I     7.73749     2.70141    36.29050
 I    -7.00422    -2.07605    36.28630
 I    -7.00421     6.81560    36.28630
 I     1.75995    -2.07604    36.28630
 I     1.75993     6.81561    36.28630
 I    -3.69726    -3.78825    33.88400
 I    -3.69727     5.10340    33.88400
 I     5.06688    -3.78825    33.88400
 I     5.06689     5.10340    33.88400
 I    -4.52360    -8.05798    33.59500
 I    -4.52359     0.83365    33.59500
 I     4.24055    -8.05799    33.59500
 I     4.24056     0.83367    33.59500
 I    -7.87936    -4.62840    32.72360
 I    -7.87935     4.26326    32.72360
 I     0.88479    -4.62838    32.72360
 I     0.88479     4.26326    32.72360
 I    -8.72304    -8.86370    32.47380
 I    -8.72304     0.02795    32.47380
 I     0.04111    -8.86371    32.47380
 I     0.04110     0.02795    32.47380
 I    -5.43269    -1.73694    30.04260
 I    -5.43270     7.15470    30.04270
 I     3.33145    -1.73693    30.04270
 I     3.33146     7.15470    30.04260
 I    -2.61609    -6.47193    30.03370
 I    -2.61610     2.41972    30.03370
 I     6.14802    -6.47193    30.03370
 I     6.14802     2.41972    30.03370
 I    -8.07016    -8.19024    27.55504
 I    -8.07015     0.70141    27.55503
 I     0.69399    -8.19024    27.55501
 I     0.69400     0.70141    27.55501
 I    -0.18928    -3.55271    27.36539
 I    -0.18927     5.33893    27.36540
 I     8.57488    -3.55272    27.36540
 I     8.57487     5.33893    27.36540
 I    -3.54859    -0.12478    26.53996
 I    -3.54862     8.76688    26.54000
 I     5.21556    -0.12479    26.53996
 I     5.21557     8.76686    26.53996
 I    -4.38305    -4.43214    26.17202
 I    -4.38305     4.45951    26.17204
 I     4.38110    -4.43215    26.17204
 I     4.38110     4.45950    26.17203
 I    -0.93259    -6.10333    23.79841
 I    -0.93260     2.78832    23.79840
 I     7.83154    -6.10334    23.79842
 I     7.83156     2.78831    23.79842
 I    -7.01716    -2.08016    23.76740
 I    -7.01716     6.81148    23.76743
 I     1.74699    -2.08016    23.76742
 I     1.74700     6.81146    23.76740
 I    -3.59961    -3.68980    21.34172
 I    -3.59960     5.20188    21.34174
 I     5.16453    -3.68980    21.34174
 I     5.16454     5.20185    21.34172
 I    -4.40153    -8.05600    20.94830
 I    -4.40154     0.83567    20.94827
 I     4.36260    -8.05599    20.94826
 I     4.36261     0.83566    20.94829
 I    -7.78086    -4.57777    20.12711
 I    -7.78085     4.31388    20.12711
 I     0.98330    -4.57777    20.12709
 I     0.98331     4.31387    20.12708
 I     8.63511    -8.97523    20.00002
 I     8.63511    -0.08359    20.00000